(set-logic HORN)
(declare-datatypes ((Nat_1 0)) (((Z_0 ) (S_0 (unS_0 Nat_1)))))
(declare-fun diseqNat_0 (Nat_1 Nat_1) Bool)
(declare-fun unS_1 (Nat_1 Nat_1) Bool)
(declare-fun isZ_0 (Nat_1) Bool)
(declare-fun isS_0 (Nat_1) Bool)
(assert (forall ((x_114 Nat_1) (x_113 Nat_1))
	(=> (= x_114 (S_0 x_113))
	    (unS_1 x_113 x_114))))
(assert (isZ_0 Z_0))
(assert (forall ((x_115 Nat_1))
	(isS_0 (S_0 x_115))))
(assert (forall ((x_116 Nat_1))
	(diseqNat_0 Z_0 (S_0 x_116))))
(assert (forall ((x_117 Nat_1))
	(diseqNat_0 (S_0 x_117) Z_0)))
(assert (forall ((x_118 Nat_1) (x_119 Nat_1))
	(=> (diseqNat_0 x_118 x_119)
	    (diseqNat_0 (S_0 x_118) (S_0 x_119)))))
(declare-fun add_0 (Nat_1 Nat_1 Nat_1) Bool)
(declare-fun minus_0 (Nat_1 Nat_1 Nat_1) Bool)
(declare-fun le_0 (Nat_1 Nat_1) Bool)
(declare-fun ge_0 (Nat_1 Nat_1) Bool)
(declare-fun lt_0 (Nat_1 Nat_1) Bool)
(declare-fun gt_0 (Nat_1 Nat_1) Bool)
(declare-fun mult_0 (Nat_1 Nat_1 Nat_1) Bool)
(declare-fun div_0 (Nat_1 Nat_1 Nat_1) Bool)
(declare-fun mod_0 (Nat_1 Nat_1 Nat_1) Bool)
(assert (forall ((y_15 Nat_1))
	(add_0 y_15 Z_0 y_15)))
(assert (forall ((x_111 Nat_1) (y_15 Nat_1) (r_0 Nat_1))
	(=> (add_0 r_0 x_111 y_15)
	    (add_0 (S_0 r_0) (S_0 x_111) y_15))))
(assert (forall ((y_15 Nat_1))
	(minus_0 Z_0 Z_0 y_15)))
(assert (forall ((x_111 Nat_1) (y_15 Nat_1) (r_0 Nat_1))
	(=> (minus_0 r_0 x_111 y_15)
	    (minus_0 (S_0 r_0) (S_0 x_111) y_15))))
(assert (forall ((y_15 Nat_1))
	(le_0 Z_0 y_15)))
(assert (forall ((x_111 Nat_1) (y_15 Nat_1))
	(=> (le_0 x_111 y_15)
	    (le_0 (S_0 x_111) (S_0 y_15)))))
(assert (forall ((y_15 Nat_1))
	(ge_0 y_15 Z_0)))
(assert (forall ((x_111 Nat_1) (y_15 Nat_1))
	(=> (ge_0 x_111 y_15)
	    (ge_0 (S_0 x_111) (S_0 y_15)))))
(assert (forall ((y_15 Nat_1))
	(lt_0 Z_0 (S_0 y_15))))
(assert (forall ((x_111 Nat_1) (y_15 Nat_1))
	(=> (lt_0 x_111 y_15)
	    (lt_0 (S_0 x_111) (S_0 y_15)))))
(assert (forall ((y_15 Nat_1))
	(gt_0 (S_0 y_15) Z_0)))
(assert (forall ((x_111 Nat_1) (y_15 Nat_1))
	(=> (gt_0 x_111 y_15)
	    (gt_0 (S_0 x_111) (S_0 y_15)))))
(assert (forall ((y_15 Nat_1))
	(mult_0 Z_0 Z_0 y_15)))
(assert (forall ((x_111 Nat_1) (y_15 Nat_1) (r_0 Nat_1) (z_10 Nat_1))
	(=>	(and (mult_0 r_0 x_111 y_15)
			(add_0 z_10 r_0 y_15))
		(mult_0 z_10 (S_0 x_111) y_15))))
(assert (forall ((x_111 Nat_1) (y_15 Nat_1))
	(=> (lt_0 x_111 y_15)
	    (div_0 Z_0 x_111 y_15))))
(assert (forall ((x_111 Nat_1) (y_15 Nat_1) (r_0 Nat_1) (z_10 Nat_1))
	(=>	(and (ge_0 x_111 y_15)
			(minus_0 z_10 x_111 y_15)
			(div_0 r_0 z_10 y_15))
		(div_0 (S_0 r_0) x_111 y_15))))
(assert (forall ((x_111 Nat_1) (y_15 Nat_1))
	(=> (lt_0 x_111 y_15)
	    (mod_0 x_111 x_111 y_15))))
(assert (forall ((x_111 Nat_1) (y_15 Nat_1) (r_0 Nat_1) (z_10 Nat_1))
	(=>	(and (ge_0 x_111 y_15)
			(minus_0 z_10 x_111 y_15)
			(mod_0 r_0 z_10 y_15))
		(mod_0 r_0 x_111 y_15))))
(declare-datatypes ((Sign_0 0)) (((Pos_0 ) (Neg_0 ))))
(declare-fun diseqSign_0 (Sign_0 Sign_0) Bool)
(declare-fun isPos_0 (Sign_0) Bool)
(declare-fun isNeg_0 (Sign_0) Bool)
(assert (isPos_0 Pos_0))
(assert (isNeg_0 Neg_0))
(assert (diseqSign_0 Pos_0 Neg_0))
(assert (diseqSign_0 Neg_0 Pos_0))
(declare-datatypes ((Nat_0 0)) (((zero_0 ) (succ_0 (p_0 Nat_0)))))
(declare-fun diseqNat_1 (Nat_0 Nat_0) Bool)
(declare-fun p_1 (Nat_0 Nat_0) Bool)
(declare-fun iszero_0 (Nat_0) Bool)
(declare-fun issucc_0 (Nat_0) Bool)
(assert (forall ((x_124 Nat_0) (x_123 Nat_0))
	(=> (= x_124 (succ_0 x_123))
	    (p_1 x_123 x_124))))
(assert (iszero_0 zero_0))
(assert (forall ((x_125 Nat_0))
	(issucc_0 (succ_0 x_125))))
(assert (forall ((x_126 Nat_0))
	(diseqNat_1 zero_0 (succ_0 x_126))))
(assert (forall ((x_127 Nat_0))
	(diseqNat_1 (succ_0 x_127) zero_0)))
(assert (forall ((x_128 Nat_0) (x_129 Nat_0))
	(=> (diseqNat_1 x_128 x_129)
	    (diseqNat_1 (succ_0 x_128) (succ_0 x_129)))))
(declare-datatypes ((Integer_0 0)) (((P_0 (projP_0 Nat_0)) (N_0 (projN_0 Nat_0)))))
(declare-fun diseqInteger_0 (Integer_0 Integer_0) Bool)
(declare-fun projP_1 (Nat_0 Integer_0) Bool)
(declare-fun projN_1 (Nat_0 Integer_0) Bool)
(declare-fun isP_0 (Integer_0) Bool)
(declare-fun isN_0 (Integer_0) Bool)
(assert (forall ((x_131 Integer_0) (x_130 Nat_0))
	(=> (= x_131 (P_0 x_130))
	    (projP_1 x_130 x_131))))
(assert (forall ((x_133 Integer_0) (x_132 Nat_0))
	(=> (= x_133 (N_0 x_132))
	    (projN_1 x_132 x_133))))
(assert (forall ((x_134 Nat_0))
	(isP_0 (P_0 x_134))))
(assert (forall ((x_135 Nat_0))
	(isN_0 (N_0 x_135))))
(assert (forall ((x_136 Nat_0) (x_137 Nat_0))
	(diseqInteger_0 (P_0 x_136) (N_0 x_137))))
(assert (forall ((x_138 Nat_0) (x_139 Nat_0))
	(diseqInteger_0 (N_0 x_138) (P_0 x_139))))
(assert (forall ((x_140 Nat_0) (x_141 Nat_0))
	(=> (diseqNat_1 x_140 x_141)
	    (diseqInteger_0 (P_0 x_140) (P_0 x_141)))))
(assert (forall ((x_142 Nat_0) (x_143 Nat_0))
	(=> (diseqNat_1 x_142 x_143)
	    (diseqInteger_0 (N_0 x_142) (N_0 x_143)))))
(declare-fun toInteger_0 (Integer_0 Sign_0 Nat_0) Bool)
(assert (forall ((x_0 Sign_0) (y_0 Nat_0) (z_0 Nat_0) (x_27 Integer_0))
	(=>	(and (= x_27 (N_0 z_0))
			(= x_0 Neg_0)
			(= y_0 (succ_0 z_0)))
		(toInteger_0 x_27 x_0 y_0))))
(assert (forall ((x_0 Sign_0) (y_0 Nat_0) (x_28 Integer_0))
	(=>	(and (= x_28 (P_0 zero_0))
			(= x_0 Neg_0)
			(= y_0 zero_0))
		(toInteger_0 x_28 x_0 y_0))))
(assert (forall ((x_0 Sign_0) (y_0 Nat_0) (x_29 Integer_0))
	(=>	(and (= x_29 (P_0 y_0))
			(= x_0 Pos_0))
		(toInteger_0 x_29 x_0 y_0))))
(declare-fun sign_0 (Sign_0 Integer_0) Bool)
(assert (forall ((x_1 Integer_0) (z_1 Nat_0) (x_30 Sign_0))
	(=>	(and (= x_30 Neg_0)
			(= x_1 (N_0 z_1)))
		(sign_0 x_30 x_1))))
(assert (forall ((x_1 Integer_0) (y_1 Nat_0) (x_31 Sign_0))
	(=>	(and (= x_31 Pos_0)
			(= x_1 (P_0 y_1)))
		(sign_0 x_31 x_1))))
(declare-fun plus_0 (Nat_0 Nat_0 Nat_0) Bool)
(assert (forall ((x_2 Nat_0) (y_2 Nat_0) (z_2 Nat_0) (x_32 Nat_0) (x_33 Nat_0))
	(=>	(and (= x_32 (succ_0 x_33))
			(plus_0 x_33 z_2 y_2)
			(= x_2 (succ_0 z_2)))
		(plus_0 x_32 x_2 y_2))))
(assert (forall ((x_2 Nat_0) (y_2 Nat_0) (x_34 Nat_0))
	(=>	(and (= x_34 y_2)
			(= x_2 zero_0))
		(plus_0 x_34 x_2 y_2))))
(declare-fun times_0 (Nat_0 Nat_0 Nat_0) Bool)
(assert (forall ((x_3 Nat_0) (y_3 Nat_0) (z_3 Nat_0) (x_35 Nat_0) (x_36 Nat_0) (x_37 Nat_0))
	(=>	(and (= x_35 x_37)
			(times_0 x_36 z_3 y_3)
			(plus_0 x_37 y_3 x_36)
			(= x_3 (succ_0 z_3)))
		(times_0 x_35 x_3 y_3))))
(assert (forall ((x_3 Nat_0) (y_3 Nat_0) (x_38 Nat_0))
	(=>	(and (= x_38 zero_0)
			(= x_3 zero_0))
		(times_0 x_38 x_3 y_3))))
(declare-fun opposite_0 (Sign_0 Sign_0) Bool)
(assert (forall ((x_4 Sign_0) (x_39 Sign_0))
	(=>	(and (= x_39 Pos_0)
			(= x_4 Neg_0))
		(opposite_0 x_39 x_4))))
(assert (forall ((x_4 Sign_0) (x_40 Sign_0))
	(=>	(and (= x_40 Neg_0)
			(= x_4 Pos_0))
		(opposite_0 x_40 x_4))))
(declare-fun timesSign_0 (Sign_0 Sign_0 Sign_0) Bool)
(assert (forall ((x_5 Sign_0) (y_4 Sign_0) (x_41 Sign_0) (x_42 Sign_0))
	(=>	(and (= x_41 x_42)
			(opposite_0 x_42 y_4)
			(= x_5 Neg_0))
		(timesSign_0 x_41 x_5 y_4))))
(assert (forall ((x_5 Sign_0) (y_4 Sign_0) (x_43 Sign_0))
	(=>	(and (= x_43 y_4)
			(= x_5 Pos_0))
		(timesSign_0 x_43 x_5 y_4))))
(declare-fun absVal_0 (Nat_0 Integer_0) Bool)
(assert (forall ((x_6 Integer_0) (m_0 Nat_0) (x_44 Nat_0) (x_45 Nat_0))
	(=>	(and (= x_44 x_45)
			(plus_0 x_45 (succ_0 zero_0) m_0)
			(= x_6 (N_0 m_0)))
		(absVal_0 x_44 x_6))))
(assert (forall ((x_6 Integer_0) (n_0 Nat_0) (x_46 Nat_0))
	(=>	(and (= x_46 n_0)
			(= x_6 (P_0 n_0)))
		(absVal_0 x_46 x_6))))
(declare-fun times_1 (Integer_0 Integer_0 Integer_0) Bool)
(assert (forall ((x_7 Integer_0) (y_5 Integer_0) (x_47 Integer_0) (x_48 Sign_0) (x_49 Sign_0) (x_50 Sign_0) (x_51 Nat_0) (x_52 Nat_0) (x_53 Nat_0) (x_54 Integer_0))
	(=>	(and (= x_47 x_54)
			(sign_0 x_48 x_7)
			(sign_0 x_49 y_5)
			(timesSign_0 x_50 x_48 x_49)
			(absVal_0 x_51 x_7)
			(absVal_0 x_52 y_5)
			(times_0 x_53 x_51 x_52)
			(toInteger_0 x_54 x_50 x_53))
		(times_1 x_47 x_7 y_5))))
(declare-fun x_8 (Integer_0 Nat_0 Nat_0) Bool)
(assert (forall ((x_9 Nat_0) (y_6 Nat_0) (fail_0 Integer_0) (z_4 Nat_0) (x_10 Nat_0) (x_11 Nat_0) (x_56 Integer_0) (x_55 Integer_0))
	(=>	(and (= x_56 fail_0)
			(= fail_0 x_55)
			(= y_6 (succ_0 z_4))
			(= x_9 (succ_0 x_10))
			(= x_9 (succ_0 x_11))
			(x_8 x_55 x_10 z_4))
		(x_8 x_56 x_9 y_6))))
(assert (forall ((x_9 Nat_0) (y_6 Nat_0) (fail_0 Integer_0) (z_4 Nat_0) (x_10 Nat_0) (x_12 Nat_0) (x_58 Integer_0) (x_57 Integer_0))
	(=>	(and (= x_58 fail_0)
			(= fail_0 x_57)
			(= y_6 (succ_0 z_4))
			(= x_9 (succ_0 x_10))
			(= x_9 zero_0)
			(= y_6 (succ_0 x_12))
			(x_8 x_57 x_10 z_4))
		(x_8 x_58 x_9 y_6))))
(assert (forall ((x_9 Nat_0) (y_6 Nat_0) (fail_0 Integer_0) (z_4 Nat_0) (x_10 Nat_0) (x_60 Integer_0) (x_59 Integer_0))
	(=>	(and (= x_60 (P_0 zero_0))
			(= fail_0 x_59)
			(= y_6 (succ_0 z_4))
			(= x_9 (succ_0 x_10))
			(= x_9 zero_0)
			(= y_6 zero_0)
			(x_8 x_59 x_10 z_4))
		(x_8 x_60 x_9 y_6))))
(assert (forall ((x_9 Nat_0) (y_6 Nat_0) (fail_0 Integer_0) (z_4 Nat_0) (x_11 Nat_0) (x_61 Integer_0))
	(=>	(and (= x_61 fail_0)
			(= fail_0 (N_0 (succ_0 z_4)))
			(= y_6 (succ_0 z_4))
			(= x_9 zero_0)
			(= x_9 (succ_0 x_11)))
		(x_8 x_61 x_9 y_6))))
(assert (forall ((x_9 Nat_0) (y_6 Nat_0) (fail_0 Integer_0) (z_4 Nat_0) (x_12 Nat_0) (x_62 Integer_0))
	(=>	(and (= x_62 fail_0)
			(= fail_0 (N_0 (succ_0 z_4)))
			(= y_6 (succ_0 z_4))
			(= x_9 zero_0)
			(= x_9 zero_0)
			(= y_6 (succ_0 x_12)))
		(x_8 x_62 x_9 y_6))))
(assert (forall ((x_9 Nat_0) (y_6 Nat_0) (fail_0 Integer_0) (z_4 Nat_0) (x_63 Integer_0))
	(=>	(and (= x_63 (P_0 zero_0))
			(= fail_0 (N_0 (succ_0 z_4)))
			(= y_6 (succ_0 z_4))
			(= x_9 zero_0)
			(= x_9 zero_0)
			(= y_6 zero_0))
		(x_8 x_63 x_9 y_6))))
(assert (forall ((x_9 Nat_0) (y_6 Nat_0) (fail_0 Integer_0) (x_11 Nat_0) (x_64 Integer_0))
	(=>	(and (= x_64 fail_0)
			(= fail_0 (P_0 x_9))
			(= y_6 zero_0)
			(= x_9 (succ_0 x_11)))
		(x_8 x_64 x_9 y_6))))
(assert (forall ((x_9 Nat_0) (y_6 Nat_0) (fail_0 Integer_0) (x_12 Nat_0) (x_65 Integer_0))
	(=>	(and (= x_65 fail_0)
			(= fail_0 (P_0 x_9))
			(= y_6 zero_0)
			(= x_9 zero_0)
			(= y_6 (succ_0 x_12)))
		(x_8 x_65 x_9 y_6))))
(assert (forall ((x_9 Nat_0) (y_6 Nat_0) (fail_0 Integer_0) (x_66 Integer_0))
	(=>	(and (= x_66 (P_0 zero_0))
			(= fail_0 (P_0 x_9))
			(= y_6 zero_0)
			(= x_9 zero_0)
			(= y_6 zero_0))
		(x_8 x_66 x_9 y_6))))
(declare-fun plus_1 (Integer_0 Integer_0 Integer_0) Bool)
(assert (forall ((x_13 Integer_0) (y_7 Integer_0) (m_1 Nat_0) (n_1 Nat_0) (x_67 Integer_0) (x_68 Nat_0) (x_69 Nat_0))
	(=>	(and (= x_67 (N_0 x_69))
			(plus_0 x_68 (succ_0 zero_0) m_1)
			(plus_0 x_69 x_68 n_1)
			(= x_13 (N_0 m_1))
			(= y_7 (N_0 n_1)))
		(plus_1 x_67 x_13 y_7))))
(assert (forall ((x_13 Integer_0) (y_7 Integer_0) (m_1 Nat_0) (n_2 Nat_0) (x_70 Integer_0) (x_71 Nat_0) (x_72 Integer_0))
	(=>	(and (= x_70 x_72)
			(plus_0 x_71 (succ_0 zero_0) m_1)
			(x_8 x_72 n_2 x_71)
			(= x_13 (N_0 m_1))
			(= y_7 (P_0 n_2)))
		(plus_1 x_70 x_13 y_7))))
(assert (forall ((x_13 Integer_0) (y_7 Integer_0) (m_2 Nat_0) (o_0 Nat_0) (x_73 Integer_0) (x_74 Nat_0) (x_75 Integer_0))
	(=>	(and (= x_73 x_75)
			(plus_0 x_74 (succ_0 zero_0) o_0)
			(x_8 x_75 m_2 x_74)
			(= x_13 (P_0 m_2))
			(= y_7 (N_0 o_0)))
		(plus_1 x_73 x_13 y_7))))
(assert (forall ((x_13 Integer_0) (y_7 Integer_0) (m_2 Nat_0) (n_3 Nat_0) (x_76 Integer_0) (x_77 Nat_0))
	(=>	(and (= x_76 (P_0 x_77))
			(plus_0 x_77 m_2 n_3)
			(= x_13 (P_0 m_2))
			(= y_7 (P_0 n_3)))
		(plus_1 x_76 x_13 y_7))))
(assert (forall ((x_14 Integer_0) (y_8 Integer_0) (z_5 Integer_0) (x_78 Integer_0) (x_79 Integer_0) (x_80 Integer_0) (x_81 Integer_0) (x_82 Integer_0))
	(=>	(and (diseqInteger_0 x_79 x_82)
			(plus_1 x_78 y_8 z_5)
			(times_1 x_79 x_14 x_78)
			(times_1 x_80 x_14 y_8)
			(times_1 x_81 x_14 z_5)
			(plus_1 x_82 x_80 x_81))
		false)))
(assert (forall ((x_15 Nat_0) (y_9 Nat_0) (z_6 Nat_0) (x_83 Nat_0) (x_84 Nat_0) (x_85 Nat_0) (x_86 Nat_0))
	(=>	(and (diseqNat_1 x_84 x_86)
			(times_0 x_83 y_9 z_6)
			(times_0 x_84 x_15 x_83)
			(times_0 x_85 x_15 y_9)
			(times_0 x_86 x_85 z_6))
		false)))
(assert (forall ((x_16 Nat_0) (y_10 Nat_0) (z_7 Nat_0) (x_87 Nat_0) (x_88 Nat_0) (x_89 Nat_0) (x_90 Nat_0))
	(=>	(and (diseqNat_1 x_88 x_90)
			(plus_0 x_87 y_10 z_7)
			(plus_0 x_88 x_16 x_87)
			(plus_0 x_89 x_16 y_10)
			(plus_0 x_90 x_89 z_7))
		false)))
(assert (forall ((x_17 Nat_0) (y_11 Nat_0) (x_91 Nat_0) (x_92 Nat_0))
	(=>	(and (diseqNat_1 x_91 x_92)
			(times_0 x_91 x_17 y_11)
			(times_0 x_92 y_11 x_17))
		false)))
(assert (forall ((x_18 Nat_0) (y_12 Nat_0) (x_93 Nat_0) (x_94 Nat_0))
	(=>	(and (diseqNat_1 x_93 x_94)
			(plus_0 x_93 x_18 y_12)
			(plus_0 x_94 y_12 x_18))
		false)))
(assert (forall ((x_19 Nat_0) (y_13 Nat_0) (z_8 Nat_0) (x_95 Nat_0) (x_96 Nat_0) (x_97 Nat_0) (x_98 Nat_0) (x_99 Nat_0))
	(=>	(and (diseqNat_1 x_96 x_99)
			(plus_0 x_95 y_13 z_8)
			(times_0 x_96 x_19 x_95)
			(times_0 x_97 x_19 y_13)
			(times_0 x_98 x_19 z_8)
			(plus_0 x_99 x_97 x_98))
		false)))
(assert (forall ((x_20 Nat_0) (y_14 Nat_0) (z_9 Nat_0) (x_100 Nat_0) (x_101 Nat_0) (x_102 Nat_0) (x_103 Nat_0) (x_104 Nat_0))
	(=>	(and (diseqNat_1 x_101 x_104)
			(plus_0 x_100 x_20 y_14)
			(times_0 x_101 x_100 z_9)
			(times_0 x_102 x_20 z_9)
			(times_0 x_103 y_14 z_9)
			(plus_0 x_104 x_102 x_103))
		false)))
(assert (forall ((x_21 Nat_0) (x_105 Nat_0))
	(=>	(and (diseqNat_1 x_105 x_21)
			(times_0 x_105 x_21 (succ_0 zero_0)))
		false)))
(assert (forall ((x_22 Nat_0) (x_106 Nat_0))
	(=>	(and (diseqNat_1 x_106 x_22)
			(times_0 x_106 (succ_0 zero_0) x_22))
		false)))
(assert (forall ((x_23 Nat_0) (x_107 Nat_0))
	(=>	(and (diseqNat_1 x_107 x_23)
			(plus_0 x_107 x_23 zero_0))
		false)))
(assert (forall ((x_24 Nat_0) (x_108 Nat_0))
	(=>	(and (diseqNat_1 x_108 x_24)
			(plus_0 x_108 zero_0 x_24))
		false)))
(assert (forall ((x_25 Nat_0) (x_109 Nat_0))
	(=>	(and (diseqNat_1 x_109 zero_0)
			(times_0 x_109 x_25 zero_0))
		false)))
(assert (forall ((x_26 Nat_0) (x_110 Nat_0))
	(=>	(and (diseqNat_1 x_110 zero_0)
			(times_0 x_110 zero_0 x_26))
		false)))
(check-sat)
